1.000000 0.750000 0.750000
5
5 2 3 4 5 6 
5 7 8 9 10 11 
5 12 13 14 15 16 
5 17 18 19 20 21 
5 22 23 24 25 26 
1 1 
1 2 
1 2 
1 2 
1 2 
1 2 
1 2 
1 2 
1 2 
1 2 
1 2 
1 2 
1 2 
1 3 
1 3 
1 3 
1 3 
1 3 
1 3 
1 3 
1 3 
1 3 
1 3 
1 3 
1 3 
1 4 
1 4 
1 4 
1 4 
1 4 
1 4 
1 4 
1 4 
1 4 
1 4 
1 4 
1 4 
1 5 
1 5 
1 5 
1 5 
1 5 
1 5 
1 5 
1 5 
1 5 
1 5 
1 5 
1 5 
1 6 
1 6 
1 6 
1 6 
1 6 
1 6 
1 6 
1 6 
1 6 
1 6 
1 6 
1 6 
1 1 
1 7 
1 7 
1 7 
1 7 
1 7 
1 7 
1 7 
1 7 
1 7 
1 7 
1 7 
1 7 
1 7 
1 7 
1 7 
1 7 
2 7 2 
1 7 
1 7 
1 7 
1 7 
1 7 
1 7 
2 7 2 
1 7 
1 7 
1 7 
2 7 2 
2 7 2 
1 7 
2 7 2 
2 7 2 
2 7 2 
2 7 2 
2 7 2 
2 7 2 
2 7 2 
2 7 2 
2 7 2 
2 7 2 
1 7 
2 7 2 
1 8 
1 8 
1 8 
1 8 
1 8 
1 8 
1 8 
1 8 
1 8 
1 8 
1 8 
1 8 
1 8 
1 8 
1 8 
1 8 
1 8 
1 8 
1 8 
1 8 
1 8 
1 8 
1 8 
1 8 
1 8 
1 8 
1 8 
1 8 
1 8 
1 8 
1 8 
1 8 
1 8 
1 8 
1 8 
1 8 
1 8 
1 8 
1 8 
1 8 
1 8 
1 8 
1 9 
2 9 8 
2 9 8 
2 9 8 
2 9 8 
1 9 
2 9 8 
2 9 8 
1 9 
1 9 
2 9 8 
2 9 8 
2 9 8 
1 9 
2 9 8 
2 9 8 
2 9 8 
2 9 8 
2 9 8 
2 9 8 
2 9 8 
1 9 
2 9 8 
2 9 8 
2 9 8 
2 9 8 
2 9 8 
2 9 8 
2 9 8 
2 9 8 
2 9 8 
2 9 8 
2 9 8 
2 9 8 
2 9 8 
2 9 8 
2 9 8 
2 9 8 
2 9 8 
2 9 8 
2 9 8 
2 9 8 
1 10 
2 10 7 
1 10 
1 10 
2 10 7 
2 10 7 
2 10 7 
1 10 
2 10 7 
2 10 7 
2 10 7 
2 10 7 
1 11 
1 11 
1 11 
1 11 
1 11 
1 11 
1 11 
1 11 
1 11 
1 11 
1 11 
1 11 
1 11 
1 11 
1 11 
1 11 
1 11 
1 11 
1 11 
1 11 
1 11 
1 11 
1 11 
1 11 
1 11 
1 11 
1 11 
1 11 
1 11 
1 11 
1 11 
1 11 
1 11 
1 11 
1 11 
1 11 
1 11 
1 11 
1 11 
1 11 
1 11 
1 11 
1 12 
1 12 
1 12 
1 12 
1 12 
1 12 
1 12 
1 12 
1 12 
1 12 
1 12 
1 12 
1 12 
1 12 
1 12 
1 12 
1 12 
1 12 
1 12 
1 12 
1 12 
1 12 
1 12 
1 12 
1 12 
1 12 
1 12 
1 12 
1 12 
1 12 
1 12 
1 12 
1 13 
1 13 
1 13 
1 13 
1 13 
1 13 
1 13 
1 13 
1 13 
1 13 
1 13 
1 13 
1 13 
1 13 
1 13 
1 13 
1 13 
1 13 
1 13 
1 13 
1 13 
1 13 
1 13 
1 13 
1 13 
1 13 
1 13 
1 13 
1 13 
1 13 
1 13 
1 13 
1 14 
1 14 
1 14 
1 14 
1 14 
1 14 
1 14 
1 14 
1 14 
1 14 
1 14 
1 14 
1 14 
1 14 
1 14 
1 14 
1 14 
1 14 
1 14 
1 14 
1 14 
1 14 
1 14 
2 14 13 
1 14 
1 14 
1 14 
1 14 
1 14 
1 14 
1 14 
2 14 13 
1 15 
1 15 
1 15 
1 15 
1 15 
1 15 
1 15 
1 15 
1 15 
1 15 
1 15 
1 15 
1 15 
1 15 
1 15 
1 15 
1 15 
1 15 
1 15 
1 15 
1 15 
1 15 
1 15 
1 15 
1 15 
1 15 
1 15 
1 15 
1 15 
1 15 
1 15 
1 15 
1 16 
1 16 
1 16 
2 16 3 
2 16 3 
2 16 3 
3 16 3 6 
1 16 
1 16 
1 16 
1 16 
3 16 3 6 
1 17 
1 17 
1 17 
1 17 
1 17 
1 17 
1 17 
1 17 
1 17 
1 17 
1 17 
1 17 
1 18 
1 18 
1 18 
1 18 
1 18 
1 18 
1 18 
1 18 
1 18 
1 18 
1 18 
1 18 
1 18 
1 18 
1 18 
1 18 
1 18 
1 18 
1 18 
1 18 
1 18 
1 18 
1 19 
1 19 
1 19 
1 19 
1 19 
2 19 9 
1 19 
1 19 
1 19 
1 19 
2 19 9 
1 19 
2 19 9 
2 19 9 
2 19 9 
1 19 
1 19 
1 19 
1 19 
1 19 
1 19 
2 19 9 
1 20 
2 20 12 
1 20 
1 20 
1 20 
1 20 
1 20 
2 20 12 
1 20 
1 20 
2 20 11 
1 20 
2 20 12 
2 20 12 
2 20 12 
2 20 11 
2 20 12 
2 20 12 
3 20 11 12 
2 20 12 
1 20 
3 20 11 12 
1 21 
1 21 
1 21 
1 21 
2 21 5 
1 21 
1 21 
1 21 
2 21 5 
2 21 5 
1 21 
1 21 
2 21 5 
2 21 5 
2 21 5 
2 21 5 
2 21 5 
2 21 5 
1 21 
1 21 
2 21 10 
3 21 5 10 
1 22 
1 22 
1 22 
1 22 
2 22 4 
1 22 
1 22 
1 22 
1 22 
2 22 4 
1 22 
2 22 4 
1 23 
1 23 
2 23 14 
1 23 
2 23 17 
2 23 19 
2 23 14 
3 23 14 19 
2 23 17 
2 23 14 
1 23 
4 23 14 17 19 
1 24 
1 24 
1 24 
1 24 
1 24 
1 24 
1 24 
2 24 16 
2 24 16 
2 24 15 
1 24 
3 24 15 16 
1 25 
1 25 
1 25 
1 25 
1 25 
1 25 
1 25 
1 25 
1 25 
1 25 
1 25 
1 25 
1 26 
1 26 
1 26 
2 26 18 
1 26 
1 26 
1 26 
2 26 18 
2 26 18 
1 26 
1 26 
2 26 18 
1 1 
